rup/random_table_3vars_159.rup
99:5 9 7 1 11 14 16 19 21 24 26 30 36 57 67 88 97 97
100:5 9 7 1 11 14 16 19 21 24 26 30 36 57 67 88 94 99
101:5 14 6 9 12 16 19 21 24 26 30 36 57 67 88 97 97
102:5 14 6 9 12 16 19 21 24 26 30 36 57 67 88 94 101
103:5 19 11 7 9 14 17 11 21 24 26 30 36 57 67 88 97 97
104:5 19 11 7 9 14 17 11 21 24 26 30 36 57 67 88 94 103
105:5 24 16 7 9 12 14 19 22 26 30 36 57 67 88 97 97
106:5 24 16 7 9 12 14 19 22 26 30 36 57 67 88 94 105
107:5 26 30 21 7 9 12 14 17 19 24 36 57 67 88 97 97
108:5 26 36 57 67 88 94 97 97
109:108
110:108
111:108
112:108
113:108
114:108
115:108
116:108
117:108
118:108
119:108
120:108
121:108
122:108
123:108
124:108
